50
150
98
95
95
91
91
89
89
88
88
87
86
84
83
82
80
79
78
75
74
74
73
72
72
70
70
68
68
67
65
59
58
58
57
55
54
53
51
42
41
39
37
36
35
34
32
25
25
21
21
20
